100
32
24
3
11
18
27
1
3
28
15
18
9
18
19
27
27
28
6
32
10
8
17
2
1
1
17
2
12
1
1
21
1
1
2
2
18
5
1
1
1
2
1
1
1
1
16
4
2
4
8
17
1
1
1
1
1
2
3
2
1
3
1
1
3
1
3
3
5
1
18
1
3
5
1
1
18
3
1
2
3
4
1
2
1
1
1
1
3
2
3
1
2
2
1
2
1
1
1
1
20
3